SCIP Status        : solving was interrupted [time limit reached]
Total Time         :    3600.00
  solving          :    3600.00
  presolving       :       0.18 (included in solving)
  reading          :       0.00
  copying          :       0.63 (48 #copies) (minimal 0.00, maximal 0.03, average 0.01)
Original Problem   :
  Problem name     : bbbenchmark/g05_60.9.cut
  Variables        : 61 (60 binary, 0 integer, 0 implicit integer, 1 continuous)
  Constraints      : 1 initial, 1 maximal
  Objective        : minimize, 1 non-zeros (abs.min = 1, abs.max = 1)
Presolved Problem  :
  Problem name     : t_bbbenchmark/g05_60.9.cut
  Variables        : 946 (60 binary, 0 integer, 885 implicit integer, 1 continuous)
  Constraints      : 886 initial, 5640 maximal
  Objective        : minimize, 1 non-zeros (abs.min = 1, abs.max = 1)
  Nonzeros         : 3601 constraint, 122 clique table
Presolvers         :   ExecTime  SetupTime  Calls  FixedVars   AggrVars   ChgTypes  ChgBounds   AddHoles    DelCons    AddCons   ChgSides   ChgCoefs
  boundshift       :       0.00       0.00      0          0          0          0          0          0          0          0          0          0
  convertinttobin  :       0.00       0.00      0          0          0          0          0          0          0          0          0          0
  domcol           :       0.00       0.00      1          0          0          0          0          0          0          0          0          0
  dualagg          :       0.00       0.00      0          0          0          0          0          0          0          0          0          0
  dualcomp         :       0.00       0.00      1          0          0          0          0          0          0          0          0          0
  dualinfer        :       0.00       0.00      0          0          0          0          0          0          0          0          0          0
  dualsparsify     :       0.00       0.00      1          0          0          0          0          0          0          0          0          0
  gateextraction   :       0.00       0.00      0          0          0          0          0          0          0          0          0          0
  implics          :       0.00       0.00      2          0          0          0          0          0          0          0          0          0
  inttobinary      :       0.00       0.00      0          0          0          0          0          0          0          0          0          0
  qpkktref         :       0.00       0.00      0          0          0          0          0          0          0          0          0          0
  redvub           :       0.00       0.00      0          0          0          0          0          0          0          0          0          0
  sparsify         :       0.00       0.00      1          0          0          0          0          0          0          0          0          0
  stuffing         :       0.00       0.00      0          0          0          0          0          0          0          0          0          0
  trivial          :       0.00       0.00      4          0          0          0          0          0          0          0          0          0
  tworowbnd        :       0.00       0.00      0          0          0          0          0          0          0          0          0          0
  dualfix          :       0.00       0.00      4          0          0          0          0          0          0          0          0          0
  genvbounds       :       0.00       0.00      0          0          0          0          0          0          0          0          0          0
  probing          :       0.12       0.00      1          0          0          0          0          0          0          0          0          0
  pseudoobj        :       0.00       0.00      1          0          0          0          1          0          0          0          0          0
  symmetry         :       0.00       0.00      0          0          0          0          0          0          0          0          0          0
  vbounds          :       0.00       0.00      1          0          0          0          0          0          0          0          0          0
  and              :       0.01       0.00      2          0          0          0          0          0          0          0          0          0
  linear           :       0.00       0.00      2          0          0          0          0          0          0          0          0          0
  logicor          :       0.00       0.00      0          0          0          0          0          0          0          0          0          0
  nonlinear        :       0.05       0.01      5          0          0          0          1          0          0        885          0          0
  benders          :       0.00       0.00      0          0          0          0          0          0          0          0          0          0
  components       :       0.00       0.00      1          0          0          0          0          0          0          0          0          0
  root node        :          -          -      -          0          -          -         48          -          -          -          -          -
Constraints        :     Number  MaxNumber  #Separate #Propagate    #EnfoLP    #EnfoRelax  #EnfoPS    #Check   #ResProp    Cutoffs    DomReds       Cuts    Applied      Conss   Children
  benderslp        :          0          0          0          0      85122          0          0       6648          0          0          0          0          0          0          0
  integral         :          0          0          0          0      85122          0          0       6648          0          0      10245          0          0       7278     164290
  and              :        885        885      93626     540365         10          0          0         37     108513         88    3095576       1567       1323          0          0
  linear           :          1+        10         61     540277         10          0          0         35          0          1          0          0          0          0          0
  logicor          :          0+      4751          0     136700          0          0          0          0       3916       1062        300          0          0          0          0
  benders          :          0          0          0          0         10          0          0         38          0          0          0          0          0          0          0
  countsols        :          0          0          0          0         10          0          0         38          0          0          0          0          0          0          0
  components       :          0          0          0          0          0          0          0          0          0          0          0          0          0          0          0
Constraint Timings :  TotalTime  SetupTime   Separate  Propagate     EnfoLP     EnfoPS     EnfoRelax   Check    ResProp    SB-Prop
  benderslp        :       0.04       0.00       0.00       0.00       0.04       0.00       0.00       0.00       0.00       0.00
  integral         :      64.47       0.00       0.00       0.00      64.46       0.00       0.00       0.01       0.00       0.00
  and              :      48.41       0.00      28.92      18.38       0.00       0.00       0.00       0.00       0.15       0.96
  linear           :       0.58       0.00       0.02       0.56       0.00       0.00       0.00       0.00       0.00       0.00
  logicor          :       6.60       0.00       0.00       6.48       0.00       0.00       0.00       0.00       0.00       0.12
  benders          :       0.00       0.00       0.00       0.00       0.00       0.00       0.00       0.00       0.00       0.00
  countsols        :       0.00       0.00       0.00       0.00       0.00       0.00       0.00       0.00       0.00       0.00
  components       :       0.15       0.00       0.00       0.15       0.00       0.00       0.00       0.00       0.00       0.00
Propagators        : #Propagate   #ResProp    Cutoffs    DomReds
  dualfix          :          4          0          0          0
  genvbounds       :          0          0          0          0
  nlobbt           :          0          0          0          0
  obbt             :          0          0          0          0
  probing          :          0          0          0          0
  pseudoobj        :     448797          0          0         49
  redcost          :     205345          0          0     439784
  rootredcost      :         25          0          0          0
  symmetry         :          0          0          0          0
  vbounds          :      48722          0          0          0
Propagator Timings :  TotalTime  SetupTime   Presolve  Propagate    ResProp    SB-Prop
  dualfix          :       0.00       0.00       0.00       0.00       0.00       0.00
  genvbounds       :       0.31       0.00       0.00       0.31       0.00       0.00
  nlobbt           :       0.00       0.00       0.00       0.00       0.00       0.00
  obbt             :       0.00       0.00       0.00       0.00       0.00       0.00
  probing          :       0.12       0.00       0.12       0.00       0.00       0.00
  pseudoobj        :       0.61       0.00       0.00       0.61       0.00       0.00
  redcost          :       6.77       0.00       0.00       6.77       0.00       0.00
  rootredcost      :       0.45       0.00       0.00       0.44       0.00       0.01
  symmetry         :       0.30       0.00       0.00       0.30       0.00       0.00
  vbounds          :       0.34       0.00       0.00       0.34       0.00       0.00
Conflict Analysis  :       Time      Calls    Success    DomReds  Conflicts   Literals    Reconvs ReconvLits   Dualrays   Nonzeros   LP Iters   (pool size: [10000,10000])
  propagation      :       0.02       1151        625          -        717       24.7          0        0.0          -          -          -
  infeasible LP    :       0.00          0          0          -          0        0.0          0        0.0          9       42.8          0
  bound exceed. LP :      16.62      13336      10379          -      53363       31.3         37       21.2          0        0.0      75071
  strong branching :       0.00          0          0          -          0        0.0          0        0.0          -          -          0
  pseudo solution  :       0.00          0          0          -          0        0.0          0        0.0          -          -          -
  applied globally :       0.16          -          -          0      23814       31.2          -          -          9          -          -
  applied locally  :          -          -          -          0          0        0.0          -          -          0          -          -
Separators         :   ExecTime  SetupTime      Calls  RootCalls    Cutoffs    DomReds  FoundCuts ViaPoolAdd  DirectAdd    Applied ViaPoolApp  DirectApp      Conss
  cut pool         :       2.60          -      16397         89          -          -      22729     556325          -          -          -          -          -    (maximal pool size:       1375)
  aggregation      :      22.34       0.00       4764         61          0          0        165       2756          0        800        800          0          0
  > cmir           :          -          -          -          -          -          -          -       2756          0        800        800          0          -
  > flowcover      :          -          -          -          -          -          -          -          0          0          0          0          0          -
  > knapsackcover  :          -          -          -          -          -          -          -          0          0          0          0          0          -
  cgmip            :       0.00       0.00          0          0          0          0          0          0          0          0          0          0          0
  clique           :       0.01       0.00         61         61          0          0          0          0          0          0          0          0          0
  closecuts        :       0.00       0.00          0          0          0          0          0          0          0          0          0          0          0
  convexproj       :       0.00       0.00          0          0          0          0          0          0          0          0          0          0          0
  disjunctive      :       0.00       0.00          0          0          0          0          0          0          0          0          0          0          0
  eccuts           :       0.00       0.00          0          0          0          0          0          0          0          0          0          0          0
  gauge            :       0.00       0.00          0          0          0          0          0          0          0          0          0          0          0
  gomory           :       0.00       0.00          0          0          0          0          0          0          0          0          0          0          0
  > gomorymi       :          -          -          -          -          -          -          -          0          0          0          0          0          -
  > strongcg       :          -          -          -          -          -          -          -          0          0          0          0          0          -
  impliedbounds    :       0.11       0.00       4764         61          0          0          7          1          0          1          1          0          0
  interlattice     :       0.06       0.00         30         30          0          0         30          0         30         29          0         29          0
  interminor       :       0.00       0.00          0          0          0          0          0          0          0          0          0          0          0
  intersub         :       0.00       0.00          0          0          0          0          0          0          0          0          0          0          0
  intobj           :       0.00       0.00          0          0          0          0          0          0          0          0          0          0          0
  mcf              :       0.00       0.00          1          1          0          0          0          0          0          0          0          0          0
  minor            :       0.01       0.00          0          0          0          0          0          0          0          0          0          0          0
  mixing           :       0.01       0.00       4764         61          0          0          0          0          0          0          0          0          0
  oddcycle         :       0.00       0.00          0          0          0          0          0          0          0          0          0          0          0
  rapidlearning    :       0.00       0.00          0          0          0          0          0          0          0          0          0          0          0
  rlt              :       0.00       0.00         10         10          0          0          0          0          0          0          0          0          0
  zerohalf         :      22.64       0.00       3818         20          0          0      22557     553568          0      76086      76086          0          0
Cutselectors       :   ExecTime  SetupTime      Calls  RootCalls   Selected     Forced   Filtered  RootSelec   RootForc   RootFilt 
  hybrid           :       0.41       0.00      10243         59      78240          0     479682        206          0         13
Pricers            :   ExecTime  SetupTime      Calls       Vars
  problem variables:       0.00          -          0          0
Branching Rules    :   ExecTime  SetupTime   BranchLP  BranchExt   BranchPS    Cutoffs    DomReds       Cuts      Conss   Children
  allfullstrong    :       0.00       0.00          0          0          0          0          0          0          0          0
  cloud            :       0.00       0.00          0          0          0          0          0          0          0          0
  distribution     :       0.00       0.00          0          0          0          0          0          0          0          0
  fullstrong       :       0.00       0.00          0          0          0          0          0          0          0          0
  inference        :       0.00       0.00          0          0          0          0          0          0          0          0
  leastinf         :       0.00       0.00          0          0          0          0          0          0          0          0
  lookahead        :       0.00       0.00          0          0          0          0          0          0          0          0
  mostinf          :       0.00       0.00          0          0          0          0          0          0          0          0
  multaggr         :       0.00       0.00          0          0          0          0          0          0          0          0
  nodereopt        :       0.00       0.00          0          0          0          0          0          0          0          0
  pscost           :       0.00       0.00          0          0          0          0          0          0          0          0
  random           :       0.00       0.00          0          0          0          0          0          0          0          0
  relpscost        :      64.29       0.00      85112          0          0          0      10245          0       7332     164290
  vanillafullstrong:       0.00       0.00          0          0          0          0          0          0          0          0
Primal Heuristics  :   ExecTime  SetupTime      Calls      Found       Best
  LP solutions     :       0.02          -          -         10         10
  relax solutions  :       0.00          -          -          0          0
  pseudo solutions :       0.00          -          -          0          0
  strong branching :       0.04          -          -          0          0
  actconsdiving    :       0.00       0.00          0          0          0
  adaptivediving   :      13.72       0.00        590          3          3
  alns             :       2.19       0.00         30          6          5
  bound            :       0.00       0.00          0          0          0
  clique           :       0.00       0.00          1          0          0
  coefdiving       :       0.00       0.00          0          0          0
  completesol      :       0.00       0.00          0          0          0
  conflictdiving   :       4.99       0.00        296          1          1
  crossover        :       0.05       0.00          1          0          0
  dins             :       0.00       0.00          0          0          0
  distributiondivin:      17.45       0.00        296          0          0
  dps              :       0.00       0.00          0          0          0
  dualval          :       0.00       0.00          0          0          0
  farkasdiving     :       0.01       0.00          0          0          0
  feaspump         :       0.11       0.00          1          1          1
  fixandinfer      :       0.00       0.00          0          0          0
  fracdiving       :       8.76       0.00        296          0          0
  gins             :       0.05       0.00          0          0          0
  guideddiving     :       8.45       0.00        296          3          3
  indicator        :       0.07       0.00          0          0          0
  indicatordiving  :       0.00       0.00          0          0          0
  intdiving        :       0.00       0.00          0          0          0
  intshifting      :       0.07       0.00         24          0          0
  linesearchdiving :       8.47       0.00        296          0          0
  localbranching   :       0.00       0.00          0          0          0
  locks            :       0.01       0.00          1          0          0
  lpface           :       0.11       0.00          0          0          0
  mpec             :       2.38       0.00          1          0          0
  multistart       :       0.00       0.00          0          0          0
  mutation         :       0.00       0.00          0          0          0
  nlpdiving        :       3.63       0.00          9          0          0
  objpscostdiving  :      31.06       0.00        101          7          2
  octane           :       0.00       0.00          0          0          0
  ofins            :       0.16       0.00          0          0          0
  oneopt           :       0.06       0.00         34          0          0
  padm             :       0.00       0.00          0          0          0
  proximity        :       0.00       0.00          0          0          0
  pscostdiving     :       8.72       0.00        295          2          2
  randrounding     :       0.33       0.00       6606          0          0
  rens             :       0.00       0.00          0          0          0
  reoptsols        :       0.00       0.00          0          0          0
  repair           :       0.00       0.00          0          0          0
  rins             :       3.74       0.00         18          0          0
  rootsoldiving    :      12.85       0.00         45          2          0
  rounding         :       0.69       0.00       4240          0          0
  shiftandpropagate:       0.00       0.00          0          0          0
  shifting         :      16.95       0.00      10324          8          8
  simplerounding   :       0.10       0.00          0          0          0
  subnlp           :      78.25       0.00          0          0          0
  trivial          :       0.00       0.00          2          2          2
  trivialnegation  :       0.00       0.00          0          0          0
  trustregion      :       0.00       0.00          0          0          0
  trysol           :       0.14       0.00          0          0          0
  twoopt           :       0.00       0.00          0          0          0
  undercover       :       0.13       0.00          1          0          0
  vbounds          :       0.00       0.00          0          0          0
  veclendiving     :       4.31       0.00        296          0          0
  zeroobj          :       0.00       0.00          0          0          0
  zirounding       :       0.36       0.00       1000          0          0
  other solutions  :          -          -          -          0          -
Diving (single)    :      Calls      Nodes   LP Iters Backtracks  Conflicts   MinDepth   MaxDepth   AvgDepth  RoundSols  NLeafSols  MinSolDpt  MaxSolDpt  AvgSolDpt
  actconsdiving    :          0          -          -          -          -          -          -          -          -          -          -          -          -
  coefdiving       :          0          -          -          -          -          -          -          -          -          -          -          -          -
  conflictdiving   :        296       5238      45888        314       4367         19         49       31.9          0          1         36         36       36.0
  distributiondivin:        296       3714     119214        488       3504         20         39       26.1          0          -          -          -          -
  farkasdiving     :          0          -          -          -          -          -          -          -          -          -          -          -          -
  fracdiving       :        296      31233      94145        234       1383         26        224      119.7          0          -          -          -          -
  guideddiving     :        296      27866      92014        190       1187         28        216      108.8          0          3         58         73       66.0
  indicatordiving  :          0          -          -          -          -          -          -          -          -          -          -          -          -
  linesearchdiving :        296       7231      91411        399       5753         25         54       38.3          0          -          -          -          -
  pscostdiving     :        295       5021     101233        302       4668         23         49       31.2          0          2         43         49       46.0
  veclendiving     :        296       5421      35101        298       5011         20         48       32.6          0          -          -          -          -
Diving (adaptive)  :      Calls      Nodes   LP Iters Backtracks  Conflicts   MinDepth   MaxDepth   AvgDepth  RoundSols  NLeafSols  MinSolDpt  MaxSolDpt  AvgSolDpt
  actconsdiving    :         54        711      22039         94        611         21         32       26.0          0          1         31         31       31.0
  coefdiving       :        152       2779      19256        153       2740         22         43       32.3          0          -          -          -          -
  conflictdiving   :          0          -          -          -          -          -          -          -          -          -          -          -          -
  distributiondivin:          0          -          -          -          -          -          -          -          -          -          -          -          -
  farkasdiving     :          0          -          -          -          -          -          -          -          -          -          -          -          -
  fracdiving       :         38       4219       9832         26        174         32        222      125.7          0          -          -          -          -
  guideddiving     :         46       4929      13981         20        101         45        207      121.3          0          1         72         72       72.0
  indicatordiving  :          0          -          -          -          -          -          -          -          -          -          -          -          -
  linesearchdiving :         88       2374      24509        106       1437         27         54       40.8          0          1         46         46       46.0
  pscostdiving     :         95       1585      30963        103       1416         22         43       31.0          0          -          -          -          -
  veclendiving     :        117       2102       9552        118       1746         27         39       32.2          0          -          -          -          -
Neighborhoods      :      Calls  SetupTime  SolveTime SolveNodes       Sols       Best       Exp3  EpsGreedy        UCB TgtFixRate  Opt  Inf Node Stal  Sol  Usr Othr Actv
  rens             :          2       0.01       0.01          0          0          0    0.00000   -1.00000    0.30241      0.700    0    1    0    0    0    0    1    1
  rins             :          2       0.01       0.00          0          0          0    0.00000   -1.00000    0.30241      0.700    0    1    0    0    0    0    1    1
  mutation         :          6       0.13       0.47        216          3          3    0.00000   -1.00000    0.50258      0.506    2    2    0    2    0    0    0    1
  localbranching   :          3       0.06       0.08         40          0          0    0.00000   -1.00000    0.49302      0.437    0    3    0    0    0    0    0    1
  crossover        :          4       0.06       0.07         12          0          0    0.00000   -1.00000    0.52660      0.353    0    4    0    0    0    0    0    1
  proximity        :          4       0.13       0.50         87          2          1    0.00000   -1.00000    0.53441      0.522    1    2    0    1    0    0    0    1
  zeroobjective    :          6       0.13       0.31        149          1          1    0.00000   -1.00000    0.49489      0.562    1    3    0    2    0    0    0    1
  dins             :          3       0.05       0.09         28          0          0    0.00000   -1.00000    0.50859      0.437    0    3    0    0    0    0    0    1
  trustregion      :          0       0.00       0.00          0          0          0    0.00000   -1.00000    1.00000      0.900    0    0    0    0    0    0    0    0
Expressions        :   #IntEval  IntEvalTi   #RevProp  RevPropTi    DomReds    Cutoffs  #Estimate  EstimTime  Branching  #Simplify SimplifyTi Simplified
  pow              :          0       0.00          0       0.00          0          0          0       0.00          0          0       0.00          0
  prod             :       3540       0.00          0       0.00          0          0          0       0.00          0       2655       0.00          0
  sum              :          8       0.00          2       0.00          0          0          0       0.00          0          3       0.01          2
  var              :       3327       0.00          0       0.00          0          0          0       0.00          0       6378       0.02          0
  varidx           :          0       0.00          0       0.00          0          0          0       0.00          0          0       0.00          0
LP                 :       Time      Calls Iterations  Iter/call   Iter/sec  Time-0-It Calls-0-It    ItLimit
  primal LP        :     160.25      16627          0       0.00       0.00     160.14      16627
  dual LP          :    2918.64     196701   25400089     147.83    8702.71       6.86      24887
  lex dual LP      :       0.00          0          0       0.00          -
  barrier LP       :       0.00          0          0       0.00          -       0.00          0
  resolve instable :       0.00          0          0       0.00          -
  diving/probing LP:      92.68       9372    1100493     117.42   11874.12
  strong branching :      39.43       7749     497506      64.20   12617.45          -          -        247
    (at root node) :          -         20       3482     174.10          -
  conflict analysis:       8.77       7558      75071       9.93    8559.98
NLP relaxation     :
  solve time       :       3.62 (9 calls)
  convexity        :  nonconvex (1 linear rows, 0 convex ineq., 0 nonconvex ineq., 885 nonlinear eq. or two-sided ineq.)
NLP Solvers        :  #Problems  ProblemTi    #Solves  SolveTime      #Iter  Time/Iter      #Okay #TimeLimit #IterLimit #LObjLimit #Interrupt  #NumError #EvalError  #OutOfMem #LicenseEr #OtherTerm   #GlobOpt    #LocOpt  #Feasible #LocInfeas #GlobInfea #Unbounded   #Unknown
  ipopt            :          2       4.60         12       6.15        362       0.02         12          0          0          0          0          0          0          0          0          0          0          0          0          3          0          0          9
B&B Tree           :
  number of runs   :          1
  nodes            :     158959 (82145 internal, 76814 leaves)
  feasible leaves  :         10
  infeas. leaves   :        355
  objective leaves :      76448
  nodes (total)    :     158959 (82145 internal, 76814 leaves)
  nodes left       :       5289
  max depth        :         37
  max depth (total):         37
  backtracks       :      41688 (26.2%)
  early backtracks :          0 (0.0%)
  nodes exc. ref.  :          0 (0.0%)
  delayed cutoffs  :          5
  repropagations   :       3532 (548 domain reductions, 2 cutoffs)
  avg switch length:       4.43
  switching time   :     185.35
Estim. Tree Size   :     387823
Estimation Tree    : 164291 nodes (159002 visited, 82145 internal, 76857 leaves, 5289 open), weight: 0.3549 completed 0.5583
Estimations        :      estim      value      trend resolution     smooth
  wbe              :     433132          -          -          -          -
  tree-profile     :         -1          -          -          -          -
  gap              :     635886    0.92420    0.00004        128     623496
  tree-weight      :     387823    0.35489    0.00071        128     387099
  leaf-frequency   :     380121    0.48337    0.00002        128     385468
  ssg              :     331697    0.32385   -0.00047        128     333306
  open-nodes       :     398450 5289.00000   -5.52983        128     404223
Root Node          :
  First LP value   : -1.00000000000000e+00
  First LP Iters   :        638 (21266.67 Iter/sec)
  First LP Time    :       0.03
  Final Dual Bound : -8.98111174949728e-01
  Final Root Iters :       1621
  Root LP Estimate : -5.45018425255273e-01
Solution           :
  Solutions found  :         45 (37 improvements)
  First Solution   : +1.00000000000000e+05   (in run 1, after 0 nodes, 0.05 seconds, depth 0, found by <trivial>)
  Gap First Sol.   :   infinite
  Gap Last Sol.    :      15.99 %
  Primal Bound     : -6.02259887005650e-01   (in run 1, after 60356 nodes, 1196.16 seconds, depth 27, found by <relaxation>)
  Dual Bound       : -6.51656041051159e-01
  Gap              :       8.20 %
Integrals          :      Total       Avg%
  primal-dual      :   45769.91      12.71
  primal-ref       :          -          - (not evaluated)
  dual-ref         :          -          - (not evaluated)
